24

1 24 18
2 12 12
3 6 19
4 3 13
5 7 7
6 21 13
7 14 14
8 14 24
9 21 16
10 6 17
11 18 8
12 23 23
13 17 20
14 16 17
15 14 14
16 7 9
17 3 23
18 23 6
19 23 2
20 2 17
21 19 3
22 20 9
23 7 11
24 14 10

215
